37
8
0 11 12 13 18 21 23 27 30 32 35
1 11 12 14 16 18 24 25 26 27 29 30 32 34 36
2 9 16 18 20 23 24 31 33 34
3 14 15 16 18 19 20 21 22 24 29 30 33 34
4 8 15 17 18 20 22 23 27 29 33 35 36
5 8 9 11 12 13 14 15 18 22 24 29 33 34 36
6 10 13 20 26 30
7 11 12 16 28 31
